results_rootrelaxation/bin012_070_005.srr.sol
solution status: optimal solution found
objective value:                      7.6322869955157
_var104_                           0.0403587443946185 	(obj:0)
_var707_                            0.587443946188342 	(obj:0)
_var719_                            0.192825112107623 	(obj:0)
_var720_                            0.143497757847534 	(obj:0)
_var730_                            0.188340807174888 	(obj:0)
_var755_                           0.0807174887892405 	(obj:2)
_var757_                            0.269058295964128 	(obj:1)
_var767_                            0.479820627802689 	(obj:2)
_var770_                            0.246636771300446 	(obj:1)
_var771_                            0.170403587443947 	(obj:0)
_var772_                            0.206278026905828 	(obj:0)
_var780_                            0.286995515695069 	(obj:0)
_var794_                           0.0672645739910304 	(obj:2)
_var796_                            0.121076233183857 	(obj:0)
_var808_                            0.484304932735425 	(obj:0)
_var811_                            0.233183856502243 	(obj:2)
_var816_                             0.26457399103139 	(obj:0)
_var826_                            0.170403587443949 	(obj:1)
_var828_                            0.300448430493275 	(obj:0)
_var831_                            0.112107623318383 	(obj:0)
_var836_                           0.0717488789237677 	(obj:0)
_var837_                            0.363228699551567 	(obj:0)
_var846_                           0.0672645739910306 	(obj:1)
_var863_                            0.246636771300449 	(obj:0)
_var868_                            0.327354260089687 	(obj:1)
_var869_                           0.0896860986547097 	(obj:1)
_var873_                            0.363228699551568 	(obj:0)
_var875_                           0.0538116591928244 	(obj:1)
_var880_                            0.394618834080716 	(obj:1)
_var881_                           0.0448430493273548 	(obj:1)
_var887_                            0.286995515695067 	(obj:2)
_var894_                           0.0672645739910306 	(obj:1)
_var895_                           0.0224215246636773 	(obj:1)
_var897_                            0.331838565022422 	(obj:0)
_var899_                           0.0986547085201789 	(obj:2)
_var900_                            0.152466367713003 	(obj:0)
_var903_                            0.237668161434979 	(obj:0)
_var906_                            0.112107623318387 	(obj:0)
_var908_                            0.358744394618831 	(obj:2)
_var911_                            0.143497757847534 	(obj:1)
_var914_                          0.00896860986547379 	(obj:1)
_var918_                            0.237668161434977 	(obj:1)
_var919_                            0.143497757847534 	(obj:2)
_var922_                             0.17488789237668 	(obj:1)
_var923_                           0.0807174887892405 	(obj:0)
_var924_                           0.0134529147982039 	(obj:1)
_var925_                            0.269058295964124 	(obj:1)
_var932_                           0.0986547085201793 	(obj:1)
_var933_                           0.0448430493273525 	(obj:0)
_var934_                           0.0852017937219731 	(obj:0)
_var935_                            0.264573991031394 	(obj:1)
_var936_                           0.0896860986547084 	(obj:3)
_var937_                            0.121076233183857 	(obj:2)
_var938_                            0.139013452914798 	(obj:2)
_var940_                           0.0179372197309408 	(obj:1)
_var942_                           0.0403587443946185 	(obj:1)
_var944_                            0.385650224215246 	(obj:0)
_var945_                            0.112107623318387 	(obj:1)
_var950_                           0.0538116591928247 	(obj:0)
_var953_                           0.0717488789237675 	(obj:2)
_var955_                           0.0672645739910326 	(obj:1)
